50
500 500
1 347 588
2 342 875
3 341 959
4 340 345
5 339 503
6 333 313
7 330 784
8 311 300
9 307 148
10 302 140
11 265 461
12 255 827
13 250 715
14 240 31
15 239 331
16 218 764
17 212 891
18 202 211
19 199 679
20 196 482
21 193 626
22 191 274
23 191 314
24 164 584
25 163 738
26 160 44
27 153 787
28 151 594
29 139 647
30 139 369
31 134 698
32 133 567
33 117 769
34 113 763
35 106 455
36 104 767
37 91 360
38 87 648
39 83 930
40 80 574
41 75 1000
42 74 611
43 74 635
44 72 31
45 68 987
46 60 445
47 54 262
48 52 23
49 52 826
50 52 790
